c FILE /home/rafael/Documents/HappySet/MIHS/inputs/happygen/output/graph_d_regular_k2_p0.5_v50_20241127_082552.txt
c SOURCE This is a d-regular graph formed for the happy graph colouring problem.
c DESCRIPTION It was generated using the problem generator of Rhyd Lewis
c
c GRAPH STATS
c Seed                             = 1805434130
c Number of Nodes                  = 50
c Number of colours k              = 2
c Number of pre-assignments        = 25
c Degree of all vertices           = 6
c Density                          = 0.122449
c 
c The degrees of nodes 1 to 50, respectively, are as follows 
c [6, 6, 6, 6, 6, 6, 6, 6, 6, 6, 6, 6, 6, 6, 6, 6, 6, 6, 6, 6, 6, 6, 6, 6, 6, 6, 
c  6, 6, 6, 6, 6, 6, 6, 6, 6, 6, 6, 6, 6, 6, 6, 6, 6, 6, 6, 6, 6, 6, 6, 6] 
c  
p edge 50 150 2
e 1 3
e 1 18
e 1 22
e 1 25
e 1 40
e 1 43
e 2 11
e 2 14
e 2 17
e 2 25
e 2 31
e 2 34
e 3 17
e 3 26
e 3 32
e 3 35
e 3 49
e 4 5
e 4 7
e 4 24
e 4 28
e 4 29
e 4 47
e 5 7
e 5 15
e 5 25
e 5 29
e 5 45
e 6 11
e 6 14
e 6 21
e 6 23
e 6 41
e 6 46
e 7 12
e 7 28
e 7 36
e 7 40
e 8 15
e 8 16
e 8 27
e 8 30
e 8 49
e 8 50
e 9 12
e 9 22
e 9 24
e 9 32
e 9 48
e 9 49
e 10 16
e 10 18
e 10 19
e 10 25
e 10 27
e 10 49
e 11 19
e 11 26
e 11 40
e 11 48
e 12 28
e 12 32
e 12 36
e 12 40
e 13 21
e 13 23
e 13 27
e 13 37
e 13 48
e 13 50
e 14 19
e 14 24
e 14 32
e 14 37
e 15 23
e 15 41
e 15 44
e 15 49
e 16 17
e 16 26
e 16 33
e 16 37
e 17 19
e 17 35
e 17 45
e 18 30
e 18 43
e 18 44
e 18 45
e 19 27
e 19 46
e 20 21
e 20 31
e 20 38
e 20 39
e 20 46
e 20 50
e 21 23
e 21 35
e 21 41
e 22 26
e 22 28
e 22 31
e 22 32
e 23 42
e 23 45
e 24 33
e 24 38
e 24 43
e 25 36
e 25 44
e 26 30
e 26 43
e 27 28
e 27 39
e 28 42
e 29 33
e 29 40
e 29 46
e 29 47
e 30 39
e 30 43
e 30 47
e 31 35
e 31 38
e 31 49
e 32 41
e 33 34
e 33 37
e 33 41
e 34 42
e 34 44
e 34 46
e 34 50
e 35 47
e 35 48
e 36 38
e 36 45
e 36 47
e 37 48
e 37 50
e 38 42
e 38 48
e 39 40
e 39 47
e 39 50
e 41 42
e 42 46
e 43 44
e 44 45
n 1 2
n 2 1
n 3 2
n 4 1
n 6 2
n 8 2
n 9 2
n 13 2
n 16 2
n 18 2
n 22 2
n 23 2
n 26 2
n 27 2
n 30 2
n 33 2
n 36 1
n 37 2
n 38 1
n 39 2
n 40 2
n 41 2
n 43 2
n 44 2
n 46 2
